(set-info :smt-lib-version 2.6)
(set-logic LRA)
(set-info :source |
   Monniaux, David; Quantifier Elimination by Lazy Model Enumeration, CAV 2010
|)
(set-info :category "random")
; ./Mjollnir_examples/B5/formula_093.m
(set-info :status sat)
(assert
 (forall ((|v17:0| Real) )(forall ((|v16:1| Real) )(forall ((|v15:2| Real) )(forall ((|v14:3| Real) )(forall ((|v13:4| Real) )(forall ((|v12:5| Real) )(exists ((|v11:6| Real) )(exists ((|v10:7| Real) )(exists ((|v9:8| Real) )(exists ((|v8:9| Real) )(exists ((|v7:10| Real) )(exists ((|v6:11| Real) )(forall ((|v5:12| Real) )(forall ((|v4:13| Real) )(forall ((|v3:14| Real) )(forall ((|v2:15| Real) )(forall ((|v1:16| Real) )(forall ((|v0:17| Real) )(let ((?x188 6))
(let ((?x455 (+ (+ (* 4 |v14:3|) (* (- 8) |v9:8|)) (* 16 |v9:8|))))
(let ((?x47 (- 8)))
(let ((?x447 (+ (+ (* (- 18) |v16:1|) (* 3 |v14:3|)) (* 11 |v16:1|))))
(let (($x459 (and (<= (+ ?x447 (* 9 |v11:6|)) ?x47) (<= (+ ?x455 (* 19 |v16:1|)) ?x188))))
(let ((?x53 15))
(let ((?x439 (+ (+ (* (- 3) |v3:14|) (* (- 17) |v7:10|)) (* (- 17) |v16:1|))))
(let ((?x429 (+ (+ (* 19 |v9:8|) (* 5 |v17:0|)) (* 19 |v15:2|))))
(let ((?x241 (- 7)))
(let ((?x86 11))
(let ((?x348 (* ?x86 |v17:0|)))
(let ((?x424 (+ (+ (+ (* (- 6) |v16:1|) (* 10 |v12:5|)) ?x348) (* ?x47 |v8:9|))))
(let ((?x27 19))
(let ((?x414 (+ (+ (* (- 17) |v5:12|) (* ?x241 |v15:2|)) (* (- 19) |v13:4|))))
(let ((?x103 (- 13)))
(let ((?x406 (+ (+ (* 14 |v16:1|) (* 10 |v14:3|)) (* 10 |v16:1|))))
(let (($x418 (or (<= (+ ?x406 (* 0 |v5:12|)) ?x103) (<= (+ ?x414 (* (- 12) |v13:4|)) ?x27))))
(let (($x434 (or $x418 (and (<= ?x424 ?x241) (<= (+ ?x429 (* (- 18) |v1:16|)) ?x47)))))
(let ((?x106 (- 16)))
(let ((?x398 (+ (+ (* (- 19) |v1:16|) (* 4 |v10:7|)) (* 12 |v3:14|))))
(let (($x462 (and (<= (+ ?x398 (* (- 11) |v10:7|)) ?x106) (or $x434 (or (<= (+ ?x439 (* 8 |v10:7|)) ?x53) $x459)))))
(let ((?x66 0))
(let ((?x388 (+ (+ (+ (* ?x103 |v1:16|) (* ?x106 |v5:12|)) (* 14 |v13:4|)) (* 3 |v10:7|))))
(let ((?x99 (- 17)))
(let ((?x10 14))
(let ((?x276 (* ?x10 |v6:11|)))
(let ((?x380 (+ (+ (+ (* (- 15) |v6:11|) (* 18 |v7:10|)) ?x276) (* (- 3) |v13:4|))))
(let ((?x139 (- 18)))
(let ((?x142 (- 1)))
(let ((?x218 (* ?x142 |v8:9|)))
(let ((?x372 (+ (+ (* 12 |v1:16|) (* 13 |v9:8|)) (* ?x99 |v14:3|))))
(let ((?x78 8))
(let ((?x79 (* ?x78 |v9:8|)))
(let ((?x366 (+ (+ (* 12 |v11:6|) (* 16 |v8:9|)) (* ?x99 |v13:4|))))
(let (($x391 (or (or (<= (+ ?x366 ?x79) ?x66) (<= (+ ?x372 ?x218) ?x139)) (or (<= ?x380 ?x99) (<= ?x388 ?x66)))))
(let ((?x83 5))
(let ((?x206 13))
(let ((?x252 (* ?x206 |v9:8|)))
(let ((?x359 (+ (+ (* ?x99 |v6:11|) (* (- 2) |v4:13|)) (* (- 15) |v1:16|))))
(let (($x393 (and (<= (+ (+ (+ |v8:9| ?x348) (* ?x139 |v7:10|)) (* ?x86 |v4:13|)) ?x99) (or (<= (+ ?x359 ?x252) ?x83) $x391))))
(let ((?x341 (+ (+ (+ (* ?x206 |v4:13|) (* ?x86 |v7:10|)) (* (- 6) |v5:12|)) (* ?x142 |v11:6|))))
(let ((?x203 (- 19)))
(let ((?x331 (+ (+ (* 20 |v7:10|) (* ?x188 |v14:3|)) (* (- 2) |v1:16|))))
(let ((?x14 20))
(let ((?x323 (+ (+ (* (- 14) |v16:1|) (* ?x139 |v3:14|)) (* (- 9) |v9:8|))))
(let ((?x120 (- 9)))
(let ((?x317 (+ (+ (+ (* 2 |v8:9|) (* ?x120 |v5:12|)) (* ?x106 |v12:5|)) |v8:9|)))
(let (($x344 (or (or (<= ?x317 ?x120) (<= (+ ?x323 (* (- 4) |v13:4|)) ?x14)) (or (<= (+ ?x331 (* 10 |v9:8|)) ?x203) (<= ?x341 ?x66)))))
(let ((?x178 (- 11)))
(let ((?x179 (* ?x178 |v5:12|)))
(let ((?x307 (+ (+ (* 17 |v10:7|) (* ?x99 |v3:14|)) (* (- 5) |v15:2|))))
(let ((?x297 (+ (+ (* 9 |v13:4|) (* ?x178 |v15:2|)) (* 17 |v5:12|))))
(let (($x310 (and (<= (+ ?x297 (* (- 4) |v8:9|)) ?x86) (<= (+ ?x307 ?x179) ?x120))))
(let ((?x117 (- 12)))
(let ((?x239 (* ?x117 |v4:13|)))
(let ((?x289 (+ (+ (* 18 |v16:1|) (* 17 |v15:2|)) (* ?x203 |v2:15|))))
(let ((?x284 (+ (+ (+ (* ?x241 |v3:14|) (* ?x178 |v1:16|)) (* (- 3) |v0:17|)) |v4:13|)))
(let ((?x277 (+ (+ (+ (* ?x120 |v15:2|) (* ?x66 |v0:17|)) (* (- 4) |v7:10|)) ?x276)))
(let ((?x232 (* ?x206 |v16:1|)))
(let ((?x259 (* (- 14) |v14:3|)))
(let ((?x268 (+ (+ (+ (* (- 10) |v12:5|) (* 2 |v0:17|)) ?x259) ?x232)))
(let ((?x126 (- 6)))
(let ((?x263 (+ (+ (+ (* 2 |v13:4|) ?x259) (* ?x14 |v17:0|)) (* 18 |v6:11|))))
(let ((?x251 (+ (+ (* 16 |v4:13|) (* (- 10) |v10:7|)) (* 10 |v10:7|))))
(let (($x248 (<= (+ (+ (+ ?x239 (* ?x241 |v5:12|)) (* ?x126 |v14:3|)) (* ?x241 |v0:17|)) ?x83)))
(let (($x271 (and (or $x248 (<= (+ ?x251 ?x252) ?x117)) (and (<= ?x263 ?x126) (<= ?x268 ?x47)))))
(let (($x346 (and (and $x271 (<= ?x277 ?x178)) (and (and (or (<= ?x284 ?x78) (<= (+ ?x289 ?x239) ?x117)) $x310) $x344))))
(let ((?x169 2))
(let ((?x92 18))
(let ((?x230 (* ?x92 |v16:1|)))
(let (($x234 (<= (+ (+ (+ (* 7 |v13:4|) (* ?x66 |v0:17|)) ?x230) ?x232) ?x169)))
(let ((?x224 (+ (+ (+ ?x218 (* 4 |v7:10|)) (* ?x14 |v7:10|)) (* ?x188 |v0:17|))))
(let ((?x214 (* ?x14 |v17:0|)))
(let ((?x215 (+ (+ (+ (* 10 |v5:12|) (* ?x169 |v10:7|)) (* ?x139 |v12:5|)) ?x214)))
(let ((?x205 (+ (+ (+ (* (- 10) |v12:5|) (* 12 |v8:9|)) |v1:16|) (* ?x203 |v15:2|))))
(let ((?x192 (+ (+ (+ (* (- 15) |v12:5|) (* ?x86 |v2:15|)) (* ?x188 |v11:6|)) (* ?x103 |v16:1|))))
(let ((?x40 16))
(let ((?x182 (+ (+ (+ (* ?x139 |v12:5|) (* 3 |v11:6|)) ?x179) (* ?x66 |v16:1|))))
(let ((?x171 (+ (+ (+ (* ?x106 |v17:0|) (* ?x92 |v5:12|)) (* ?x83 |v17:0|)) (* ?x169 |v2:15|))))
(let ((?x62 4))
(let ((?x160 (* (- 10) |v10:7|)))
(let ((?x161 (+ (+ (+ (* (- 20) |v10:7|) (* ?x66 |v7:10|)) (* ?x117 |v11:6|)) ?x160)))
(let (($x195 (or (or (<= ?x161 ?x62) (<= ?x171 ?x10)) (or (<= ?x182 ?x40) (<= ?x192 ?x83)))))
(let (($x237 (or $x195 (and (and (<= ?x205 ?x206) (<= ?x215 ?x188)) (or (<= ?x224 ?x206) $x234)))))
(let ((?x148 (+ (+ (+ (* ?x139 |v11:6|) (* ?x142 |v15:2|)) (* ?x66 |v10:7|)) (* ?x139 |v2:15|))))
(let ((?x130 (- 3)))
(let ((?x131 (* ?x130 |v0:17|)))
(let ((?x136 (+ (+ (+ (* 7 |v5:12|) (* ?x126 |v3:14|)) ?x131) (* 9 |v4:13|))))
(let ((?x115 (+ (+ (* (- 15) |v14:3|) (* ?x14 |v5:12|)) (* (- 4) |v2:15|))))
(let ((?x105 (+ (+ (+ (* ?x92 |v4:13|) (* 7 |v16:1|)) (* ?x99 |v2:15|)) (* ?x103 |v9:8|))))
(let (($x151 (and (or (<= ?x105 ?x106) (<= (+ ?x115 (* ?x117 |v9:8|)) ?x120)) (or (<= ?x136 ?x40) (<= ?x148 ?x103)))))
(let ((?x85 (+ (+ (+ (* (- 15) |v10:7|) (* ?x53 |v5:12|)) ?x79) (* ?x83 |v7:10|))))
(let ((?x69 (- 2)))
(let ((?x68 (+ (+ (+ (* ?x53 |v0:17|) (* 12 |v15:2|)) (* ?x62 |v1:16|)) (* ?x66 |v15:2|))))
(let ((?x44 (- 15)))
(let ((?x45 (* ?x44 |v6:11|)))
(let ((?x41 (* ?x40 |v4:13|)))
(let ((?x46 (+ (+ (+ (* 3 |v11:6|) (* 17 |v6:11|)) ?x41) ?x45)))
(let ((?x26 (+ (+ (+ (* ?x10 |v4:13|) (* ?x14 |v9:8|)) (* 7 |v14:3|)) (* (- 20) |v17:0|))))
(let (($x89 (or (or (<= ?x26 ?x27) (<= ?x46 ?x47)) (or (<= ?x68 ?x69) (<= ?x85 ?x86)))))
(or (or (or (and $x89 $x151) $x237) $x346) (and $x393 $x462)))))))))))))))))))))))))))))))))))))))))))))))))))))))))))))))))))))))))))))))))))))))))))))))))))))))
)
)
)
)
)
)
)
)
)
)
)
)
)
)
)
)
)
)
(check-sat)
(exit)

